100
32
21
17
23
1
13
9
20
9
27
4
23
12
31
13
14
28
16
8
5
16
18
6
30
22
18
1
27
19
23
26
26
23
15
16
25
12
14
2
12
31
1
20
20
14
4
21
5
17
2
20
18
20
14
4
17
9
18
24
32
18
22
32
11
25
5
2
9
17
3
7
4
3
25
20
25
10
1
12
27
18
10
32
20
30
30
17
14
6
12
31
4
32
27
21
23
22
32
7
24
7